50
20816

243 230
53 481
119 833
447 364
253 768
825 366
561 629
988 901
324 781
273 386
592 664
271 177
191 902
404 957
61 494
406 618
544 318
154 568
418 970
406 24
271 802
997 231
57 470
505 892
958 455
649 303
658 721
916 613
510 686
830 807
636 394
848 744
51 564
565 256
932 498
433 933
818 737
290 632
777 261
579 393
971 609
462 465
13 771
800 745
591 3
648 39
975 868
223 153
179 636
768 464
